set C := 1 2 3 4 5 6 7 8 9 10;

param q :=
    1 13.26
    2 17.11
    3 42.35
    4 11.98
    5 29.95
    6 25.40
    7 31.86
    8 49.13
    9 40.12
    10 47.51;
param ca :=
    1 239.33
    2 218.98
    3 235.90
    4 224.77
    5 188.37
    6 184.92
    7 150.06
    8 247.21
    9 168.07
    10 236.57;
param cc :=
    1 35.60
    2 34.91
    3 43.83
    4 39.04
    5 47.83
    6 42.05
    7 47.07
    8 35.52
    9 38.47
    10 48.75;
param cp :=
    1 6.92
    2 11.54
    3 10.66
    4 5.45
    5 8.17
    6 5.26
    7 7.82
    8 10.94
    9 10.67
    10 11.32;
param sMin := 0;
param sMax := 80;

namespace t0
{
    set A := 1;
    set AAnt := 2;
    set P := 3 4 5 6 7 8 9 10;
    set S := 1;

    param p :=
        1 1.0000000000;
    param d :=
        1 19.20;
    param h := 1;
    param s0 := 20;
}

namespace t1
{
    set AAnt := 1;
    set P := 3 4 5 6 7 8 9 10;
    set PAnt := 3 4 5 6 7 8 9 10;
    set S := 1 2;

    param p :=
        1 0.6721453176
        2 0.3278546824;
    param d :=
        1 21.30
        2 11.22;
    param h := 1;
}

namespace t2
{
    set A2Ant := 1;
    set P := 3 4 5 6 7 8 9 10;
    set PAnt := 3 4 5 6 7 8 9 10;
    set S := 1 2;

    param p :=
        1 0.4837670641
        2 0.5162329359;
    param d :=
        1 40.42
        2 17.68;
    param h := 1;
}

namespace t3
{
    set P := 3 4 5 6 7 8 9 10;
    set PAnt := 3 4 5 6 7 8 9 10;
    set S := 1 2;

    param p :=
        1 0.7292959909
        2 0.2707040091;
    param d :=
        1 48.46
        2 18.31;
    param h := 1;
}

namespace t4
{
    set PAnt := 3 4 5 6 7 8 9 10;
    set S := 1 2;

    param p :=
        1 0.6874658168
        2 0.3125341832;
    param d :=
        1 15.10
        2 21.46;
    param h := 1;
}
